215
0 1 0
1 2 0
2 2 1
3 3 0
4 3 1
5 4 0
6 4 2
7 5 0
8 5 1
9 5 2
10 5 3
11 5 4
12 6 1
13 6 2
14 6 4
15 7 0
16 7 2
17 7 3
18 7 4
19 7 5
20 7 6
21 8 2
22 8 3
23 8 4
24 8 5
25 8 7
26 9 0
27 9 1
28 9 2
29 9 4
30 9 7
31 10 0
32 10 1
33 10 2
34 10 4
35 10 5
36 10 6
37 10 7
38 10 9
39 11 3
40 11 6
41 11 7
42 11 8
43 11 9
44 11 10
45 12 0
46 12 3
47 12 5
48 12 6
49 12 7
50 12 8
51 12 9
52 12 10
53 12 11
54 13 0
55 13 2
56 13 4
57 13 5
58 13 6
59 13 11
60 13 12
61 14 1
62 14 2
63 14 3
64 14 5
65 14 6
66 14 7
67 14 8
68 14 11
69 14 12
70 14 13
71 15 0
72 15 1
73 15 2
74 15 3
75 15 5
76 15 6
77 15 7
78 15 8
79 15 10
80 15 12
81 15 13
82 15 14
83 16 0
84 16 1
85 16 2
86 16 4
87 16 6
88 16 7
89 16 8
90 16 9
91 16 10
92 16 11
93 16 12
94 16 13
95 16 14
96 17 0
97 17 1
98 17 2
99 17 3
100 17 5
101 17 6
102 17 7
103 17 8
104 17 10
105 17 13
106 17 14
107 17 15
108 17 16
109 18 0
110 18 1
111 18 2
112 18 4
113 18 5
114 18 7
115 18 8
116 18 9
117 18 10
118 18 11
119 18 13
120 18 14
121 18 15
122 18 16
123 19 0
124 19 2
125 19 3
126 19 4
127 19 5
128 19 6
129 19 7
130 19 8
131 19 10
132 19 11
133 19 12
134 19 15
135 19 16
136 19 17
137 19 18
138 20 0
139 20 1
140 20 2
141 20 3
142 20 4
143 20 5
144 20 6
145 20 9
146 20 10
147 20 11
148 20 14
149 20 15
150 20 16
151 20 17
152 20 18
153 20 19
154 21 0
155 21 1
156 21 2
157 21 4
158 21 5
159 21 7
160 21 8
161 21 9
162 21 11
163 21 12
164 21 13
165 21 14
166 21 16
167 21 17
168 21 20
169 22 0
170 22 3
171 22 4
172 22 8
173 22 10
174 22 11
175 22 13
176 22 14
177 22 15
178 22 18
179 22 19
180 23 1
181 23 2
182 23 4
183 23 5
184 23 7
185 23 8
186 23 9
187 23 11
188 23 13
189 23 15
190 23 16
191 23 17
192 23 18
193 23 19
194 23 20
195 23 22
196 24 1
197 24 2
198 24 3
199 24 4
200 24 5
201 24 6
202 24 7
203 24 9
204 24 10
205 24 11
206 24 12
207 24 13
208 24 14
209 24 15
210 24 17
211 24 19
212 24 21
213 24 22
214 24 23
